qe/outputs/qe/qe_queries_cbrdelay_obs/T=5,eliminate=[I_0,I_1,I_2,I_3,I_4,L_1,L_2,L_3,L_4].smt2
; benchmark generated from python API
(set-info :status unknown)
(declare-fun C () Real)
(declare-fun B () Real)
(declare-fun S_0 () Real)
(declare-fun S_3 () Real)
(declare-fun S_2 () Real)
(declare-fun S_4 () Real)
(declare-fun A_2 () Real)
(declare-fun A_4 () Real)
(declare-fun S_1 () Real)
(declare-fun L_0 () Real)
(declare-fun A_0 () Real)
(declare-fun A_1 () Real)
(declare-fun A_3 () Real)
(assert
 (let (($x10449 (>= (+ (* (- 1.0) B) S_3 (* (- 2.0) C) (* (- 1.0) S_0)) 0.0)))
 (let ((?x456 (* (- 1.0) S_2)))
 (let ((?x415 (* (- 1.0) A_4)))
 (let ((?x476 (* (- 1.0) C)))
 (let ((?x537 (* (- 1.0) B)))
 (let (($x34 (>= L_0 0.0)))
 (let (($x776 (>= C 5.0)))
 (let ((?x467 (* (- 1.0) S_1)))
 (let ((?x419 (* (- 1.0) A_3)))
 (let ((?x894 (* (- 2.0) C)))
 (let (($x9426 (<= (+ ?x537 (* (- 3.0) C) ?x419 A_1 S_4 (* (- 1.0) S_0)) 0.0)))
 (let (($x10377 (not (<= 0.0 (+ ?x537 S_3 (* 2.0 C) (* (- 1.0) S_4))))))
 (let (($x19868 (or $x10377 (not (<= 0.0 (+ S_3 A_3 (* (- 1.0) A_1) (* (- 1.0) S_4)))))))
 (let (($x8805 (<= (+ B A_3 (* (- 1.0) A_1) (* (- 1.0) S_4) S_1) 0.0)))
 (let (($x1243 (<= (+ A_1 (* (- 1.0) L_0) ?x467 ?x537) 0.0)))
 (let (($x987 (<= (+ (* 2.0 C) (* (- 1.0) S_4) S_1) 0.0)))
 (let (($x2695 (<= (+ C (* (- 1.0) S_4) S_2) 0.0)))
 (let (($x1416 (<= (+ B ?x476 A_3 (* (- 1.0) A_1) (* (- 1.0) S_4) S_2) 0.0)))
 (let (($x924 (<= (+ (* (- 1.0) L_0) A_3 (* (- 1.0) S_4)) 0.0)))
 (let (($x7873 (<= (+ B C A_3 (* (- 1.0) A_1) (* (- 1.0) S_4) S_0) 0.0)))
 (let (($x2814 (<= (+ (* 3.0 C) (* (- 1.0) S_4) S_0) 0.0)))
 (let (($x3803 (<= (+ A_1 (* (- 1.0) S_3) (* (- 1.0) L_0) C ?x537) 0.0)))
 (let (($x3761 (not $x3803)))
 (let (($x2548 (<= (+ ?x537 (* (- 3.0) C) ?x415 A_2 S_4 (* (- 1.0) S_0)) 0.0)))
 (let (($x108 (>= S_1 S_0)))
 (let (($x111 (>= S_2 S_1)))
 (let (($x114 (>= S_3 S_2)))
 (let (($x117 (>= S_4 S_3)))
 (let (($x119 (>= A_1 A_0)))
 (let (($x120 (>= A_2 A_1)))
 (let (($x121 (>= A_3 A_2)))
 (let (($x122 (>= A_4 A_3)))
 (and $x122 $x121 $x120 $x119 $x117 $x114 $x111 $x108 (<= (+ L_0 ?x419 ?x476 S_4) 0.0) (or $x987 (<= (+ A_3 (* (- 1.0) A_2) ?x476) 0.0)) (or (<= (+ A_3 (* (- 1.0) A_2) ?x476) 0.0) $x10377) (or (<= (+ ?x476 A_2 (* (- 1.0) A_1)) 0.0) $x2695) (or (<= (+ ?x476 A_2 (* (- 1.0) A_1)) 0.0) $x2814) (or $x987 (<= (+ ?x476 A_2 (* (- 1.0) A_1)) 0.0)) (or (<= (+ ?x476 A_2 (* (- 1.0) A_1)) 0.0) $x10377) (<= (+ L_0 ?x415 S_4) 0.0) (<= (+ ?x537 ?x894 ?x415 A_2 (* (- 1.0) A_0) S_4 L_0) 0.0) $x2548 (<= (+ ?x537 (* (- 1.0) S_3) ?x415 A_2 S_4) 0.0) (<= (+ ?x537 ?x894 ?x415 A_2 S_4 ?x467) 0.0) (<= (+ ?x537 ?x476 ?x415 A_1 (* (- 1.0) A_0) S_4 L_0) 0.0) (or $x987 $x3761 (not (<= (+ L_0 ?x419 ?x476 S_4 B) 0.0))) (or $x924 $x987 (not $x1243)) (or $x987 $x3803 $x8805) (<= (+ ?x537 ?x894 ?x415 A_1 S_4 (* (- 1.0) S_0)) 0.0) (<= (+ ?x537 ?x415 A_1 S_4 ?x456) 0.0) (<= (+ ?x537 (* (- 1.0) S_3) C ?x415 A_1 S_4) 0.0) (<= (+ ?x537 ?x476 ?x415 A_1 S_4 ?x467) 0.0) (or $x924 $x2814 $x7873) (or $x924 $x1416 $x2695) (or $x987 $x1243 $x8805) $x19868 (<= (+ ?x537 ?x476 ?x419 A_1 S_4 ?x456) 0.0) (<= (+ ?x537 (* (- 1.0) S_3) ?x419 A_1 S_4) 0.0) (<= (+ ?x537 ?x894 ?x419 A_1 (* (- 1.0) A_0) S_4 L_0) 0.0) $x9426 (<= (+ ?x537 ?x894 ?x419 A_1 S_4 ?x467) 0.0) $x776 $x34 (<= (+ L_0 (* (- 1.0) A_0) S_0) 0.0) (<= (+ C ?x456 S_0) 0.0) (<= (+ L_0 (* (- 1.0) A_0) ?x476 S_1) 0.0) (<= (+ ?x894 S_1 (* (- 1.0) S_0)) 0.0) (<= (+ (* (- 1.0) S_3) C S_1) 0.0) (<= (+ ?x894 S_2 ?x467) 0.0) (<= (+ ?x894 (* (- 1.0) A_0) S_2 L_0) 0.0) (<= (+ (* (- 3.0) C) S_2 (* (- 1.0) S_0)) 0.0) (<= (+ (* (- 4.0) C) (* (- 1.0) A_0) S_4 L_0) 0.0) (<= (+ (* (- 4.0) C) S_4 ?x467) 0.0) (<= (+ (* (- 1.0) S_3) ?x894 S_4) 0.0) (not (>= (+ (* (- 1.0) A_1) S_3 L_0) 0.0)) (not (>= (+ ?x537 S_3 ?x476 (* (- 1.0) A_0) L_0) 0.0)) (not (>= (+ ?x537 S_3 ?x476 ?x467) 0.0)) (<= (+ S_3 (* (- 4.0) C) (* (- 1.0) S_0)) 0.0) (<= (+ (* (- 5.0) C) S_4 (* (- 1.0) S_0)) 0.0) (<= (+ S_3 (* (- 3.0) C) (* (- 1.0) A_0) L_0) 0.0) (<= (+ S_3 (* (- 3.0) C) ?x467) 0.0) (not (>= (+ ?x537 S_3 ?x456) 0.0)) (<= (+ ?x537 ?x476 ?x415 A_2 S_4 ?x456) 0.0) (<= (+ (* (- 3.0) C) S_4 ?x456) 0.0) (not $x10449) (<= (+ S_3 ?x894 ?x456) 0.0) (<= (+ (* (- 1.0) S_3) (* 2.0 C) S_0) 0.0) (not (>= (+ ?x537 C) 0.0))))))))))))))))))))))))))))))))))))
(check-sat)
